K=5;
N=7;
P=[5 30 10 48 44];
R=[14 41 8 25 15];
A=[6 3 2 4 5];
C=[25 23 9 40 49];
M=[
	[0 9 2 1 34 22 41]
	[9 0 6 7 16 43 6]
	[2 6 0 45 4 47 5]
	[1 7 45 0 34 1 34]
	[34 16 4 34 0 9 28]
	[22 43 47 1 9 0 12]
	[41 6 5 34 28 12 0]
];